(set-info :smt-lib-version 2.6)
(set-info :category "crafted")
(set-logic QF_FFA)
(define-sort FF0 () (_ FiniteField 52435875175126190479447740508185965837690552500527637822603658699938581184513))
(declare-fun return_n2_alt () FF0)
(declare-fun mul_n25_alt () FF0)
(declare-fun mul_n20_alt () FF0)
(declare-fun mul_n48_alt () FF0)
(declare-fun mul_n36_alt () FF0)
(declare-fun mul_n47_alt () FF0)
(declare-fun mul_n34_alt () FF0)
(declare-fun mul_n46_alt () FF0)
(declare-fun mul_n39_alt () FF0)
(declare-fun mul_n45_alt () FF0)
(declare-fun mul_n10_alt () FF0)
(declare-fun mul_n44_alt () FF0)
(declare-fun mul_n18_alt () FF0)
(declare-fun mul_n41_alt () FF0)
(declare-fun mul_n28_alt () FF0)
(declare-fun mul_n43_alt () FF0)
(declare-fun mul_n42_alt () FF0)
(declare-fun mul_n19_alt () FF0)
(declare-fun mul_n14_alt () FF0)
(declare-fun mul_n37_alt () FF0)
(declare-fun mul_n40_alt () FF0)
(declare-fun b_n3_alt () FF0)
(declare-fun a_n4_alt () FF0)
(declare-fun mul_n7_alt () FF0)
(declare-fun mul_n21_alt () FF0)
(declare-fun mul_n8_alt () FF0)
(declare-fun mul_n27_alt () FF0)
(declare-fun mul_n11_alt () FF0)
(declare-fun d_n0_alt () FF0)
(declare-fun mul_n12_alt () FF0)
(declare-fun mul_n26_alt () FF0)
(declare-fun mul_n38_alt () FF0)
(declare-fun mul_n35_alt () FF0)
(declare-fun mul_n33_alt () FF0)
(declare-fun mul_n32_alt () FF0)
(declare-fun mul_n22_alt () FF0)
(declare-fun mul_n23_alt () FF0)
(declare-fun mul_n31_alt () FF0)
(declare-fun mul_n30_alt () FF0)
(declare-fun mul_n29_alt () FF0)
(declare-fun mul_n24_alt () FF0)
(declare-fun mul_n15_alt () FF0)
(declare-fun c_n1_alt () FF0)
(declare-fun mul_n9_alt () FF0)
(declare-fun mul_n17_alt () FF0)
(declare-fun mul_n16_alt () FF0)
(declare-fun mul_n13_alt () FF0)
(declare-fun mul_n6_alt () FF0)
(declare-fun mul_n5_alt () FF0)
(declare-fun return_n2 () FF0)
(declare-fun mul_n25 () FF0)
(declare-fun mul_n20 () FF0)
(declare-fun mul_n48 () FF0)
(declare-fun mul_n36 () FF0)
(declare-fun mul_n47 () FF0)
(declare-fun mul_n34 () FF0)
(declare-fun mul_n46 () FF0)
(declare-fun mul_n39 () FF0)
(declare-fun mul_n45 () FF0)
(declare-fun mul_n10 () FF0)
(declare-fun mul_n44 () FF0)
(declare-fun mul_n18 () FF0)
(declare-fun mul_n41 () FF0)
(declare-fun mul_n28 () FF0)
(declare-fun mul_n43 () FF0)
(declare-fun mul_n42 () FF0)
(declare-fun mul_n19 () FF0)
(declare-fun mul_n14 () FF0)
(declare-fun mul_n37 () FF0)
(declare-fun mul_n40 () FF0)
(declare-fun b_n3 () FF0)
(declare-fun a_n4 () FF0)
(declare-fun mul_n7 () FF0)
(declare-fun mul_n21 () FF0)
(declare-fun mul_n8 () FF0)
(declare-fun mul_n27 () FF0)
(declare-fun mul_n11 () FF0)
(declare-fun d_n0 () FF0)
(declare-fun mul_n12 () FF0)
(declare-fun mul_n26 () FF0)
(declare-fun mul_n38 () FF0)
(declare-fun mul_n35 () FF0)
(declare-fun mul_n33 () FF0)
(declare-fun mul_n32 () FF0)
(declare-fun mul_n22 () FF0)
(declare-fun mul_n23 () FF0)
(declare-fun mul_n31 () FF0)
(declare-fun mul_n30 () FF0)
(declare-fun mul_n29 () FF0)
(declare-fun mul_n24 () FF0)
(declare-fun mul_n15 () FF0)
(declare-fun c_n1 () FF0)
(declare-fun mul_n9 () FF0)
(declare-fun mul_n17 () FF0)
(declare-fun mul_n16 () FF0)
(declare-fun mul_n13 () FF0)
(declare-fun mul_n6 () FF0)
(declare-fun mul_n5 () FF0)
(assert 
  (let ((let0 (as ff1 FF0)))
  (let ((let1 (as ff52435875175126190479447740508185965837690552500527637822603658699938581184512 FF0)))
  (let ((let2 return_n2_alt))
  (let ((let3 (ff.mul let2 let1)))
  (let ((let4 (ff.add let3 let0)))
  (let ((let5 mul_n25_alt))
  (let ((let6 (ff.mul let5 let1)))
  (let ((let7 mul_n20_alt))
  (let ((let8 (ff.add let7 let6)))
  (let ((let9 mul_n48_alt))
  (let ((let10 (ff.mul let9 let8)))
  (let ((let11 (= let10 let4)))
  (let ((let12 mul_n36_alt))
  (let ((let13 (ff.mul let12 let1)))
  (let ((let14 (ff.add let13 let0)))
  (let ((let15 mul_n47_alt))
  (let ((let16 (ff.mul let15 let14)))
  (let ((let17 (= let16 let9)))
  (let ((let18 mul_n34_alt))
  (let ((let19 (ff.mul let18 let1)))
  (let ((let20 (ff.add let19 let0)))
  (let ((let21 mul_n46_alt))
  (let ((let22 (ff.mul let21 let20)))
  (let ((let23 (= let22 let15)))
  (let ((let24 mul_n39_alt))
  (let ((let25 mul_n45_alt))
  (let ((let26 (ff.mul let25 let24)))
  (let ((let27 (= let26 let21)))
  (let ((let28 mul_n10_alt))
  (let ((let29 mul_n44_alt))
  (let ((let30 (ff.mul let29 let28)))
  (let ((let31 (= let30 let25)))
  (let ((let32 mul_n18_alt))
  (let ((let33 mul_n41_alt))
  (let ((let34 (ff.mul let33 let1)))
  (let ((let35 mul_n28_alt))
  (let ((let36 (ff.mul let35 let1)))
  (let ((let37 (ff.add let36 let34 let32)))
  (let ((let38 mul_n43_alt))
  (let ((let39 (ff.mul let38 let37)))
  (let ((let40 (= let39 let29)))
  (let ((let41 mul_n42_alt))
  (let ((let42 (as ff2 FF0)))
  (let ((let43 (ff.mul let28 let1)))
  (let ((let44 (ff.mul let32 let1)))
  (let ((let45 mul_n19_alt))
  (let ((let46 (ff.mul let45 let1)))
  (let ((let47 (ff.add let46 let44 let43 let42)))
  (let ((let48 (ff.mul let47 let41)))
  (let ((let49 (= let48 let38)))
  (let ((let50 mul_n14_alt))
  (let ((let51 mul_n37_alt))
  (let ((let52 (ff.mul let51 let1)))
  (let ((let53 (ff.add let52 let0)))
  (let ((let54 (ff.mul let53 let50)))
  (let ((let55 (= let54 let41)))
  (let ((let56 mul_n40_alt))
  (let ((let57 (ff.mul let56 let1)))
  (let ((let58 (ff.add let57 let36 let32)))
  (let ((let59 b_n3_alt))
  (let ((let60 a_n4_alt))
  (let ((let61 (ff.mul let60 let1)))
  (let ((let62 mul_n7_alt))
  (let ((let63 mul_n21_alt))
  (let ((let64 mul_n8_alt))
  (let ((let65 (ff.mul let64 let1)))
  (let ((let66 (ff.add let65 let63 let62 let61 let59)))
  (let ((let67 (ff.mul let66 let58)))
  (let ((let68 (= let67 let33)))
  (let ((let69 mul_n27_alt))
  (let ((let70 (ff.mul let69 let1)))
  (let ((let71 mul_n11_alt))
  (let ((let72 d_n0_alt))
  (let ((let73 (ff.add let72 let71 let43 let70 let0)))
  (let ((let74 mul_n12_alt))
  (let ((let75 (ff.mul let74 let1)))
  (let ((let76 (ff.add let75 let0)))
  (let ((let77 (ff.mul let76 let73)))
  (let ((let78 (= let77 let56)))
  (let ((let79 mul_n26_alt))
  (let ((let80 mul_n38_alt))
  (let ((let81 (ff.mul let80 let79)))
  (let ((let82 (= let81 let24)))
  (let ((let83 (ff.add let43 let0)))
  (let ((let84 (ff.mul let83 let51)))
  (let ((let85 (= let84 let80)))
  (let ((let86 (ff.mul let66 let7)))
  (let ((let87 (= let86 let51)))
  (let ((let88 mul_n35_alt))
  (let ((let89 (ff.mul let88 let20)))
  (let ((let90 (= let89 let12)))
  (let ((let91 (ff.mul let59 let1)))
  (let ((let92 (ff.add let91 let0)))
  (let ((let93 mul_n33_alt))
  (let ((let94 (ff.mul let93 let92)))
  (let ((let95 (= let94 let18)))
  (let ((let96 mul_n32_alt))
  (let ((let97 (ff.mul let96 let79)))
  (let ((let98 (= let97 let93)))
  (let ((let99 mul_n22_alt))
  (let ((let100 (ff.mul let99 let1)))
  (let ((let101 (ff.mul let62 let1)))
  (let ((let102 mul_n23_alt))
  (let ((let103 (ff.mul let102 let1)))
  (let ((let104 (ff.add let64 let103 let101 let100 let91 let42)))
  (let ((let105 mul_n31_alt))
  (let ((let106 (ff.mul let105 let104)))
  (let ((let107 (= let106 let96)))
  (let ((let108 mul_n30_alt))
  (let ((let109 (ff.mul let108 let104)))
  (let ((let110 (= let109 let105)))
  (let ((let111 (ff.add let46 let43 let44 let42)))
  (let ((let112 mul_n29_alt))
  (let ((let113 (ff.mul let112 let111)))
  (let ((let114 (= let113 let108)))
  (let ((let115 mul_n24_alt))
  (let ((let116 (ff.add let36 let32)))
  (let ((let117 (ff.mul let116 let115)))
  (let ((let118 (= let117 let112)))
  (let ((let119 (ff.mul let71 let1)))
  (let ((let120 (ff.mul let72 let1)))
  (let ((let121 (ff.add let69 let120 let28 let32 let119 let1)))
  (let ((let122 (ff.mul let79 let1)))
  (let ((let123 (ff.add let122 let0)))
  (let ((let124 (ff.mul let123 let121)))
  (let ((let125 (= let124 let35)))
  (let ((let126 (ff.mul let71 let42)))
  (let ((let127 (as ff52435875175126190479447740508185965837690552500527637822603658699938581184511 FF0)))
  (let ((let128 (ff.mul let28 let127)))
  (let ((let129 (ff.add let128 let126 let42)))
  (let ((let130 (ff.mul let129 let72)))
  (let ((let131 (= let130 let69)))
  (let ((let132 mul_n15_alt))
  (let ((let133 (ff.add let59 let132)))
  (let ((let134 (ff.mul let133 let32)))
  (let ((let135 (= let134 let79)))
  (let ((let136 (ff.add let65 let102 let62 let7 let99 let59 let127)))
  (let ((let137 (ff.mul let115 let1)))
  (let ((let138 (ff.add let137 let0)))
  (let ((let139 (ff.mul let138 let136)))
  (let ((let140 (= let139 let5)))
  (let ((let141 (ff.mul let47 let7)))
  (let ((let142 (= let141 let115)))
  (let ((let143 (ff.add let64 let101 let91 let0)))
  (let ((let144 (ff.mul let99 let127)))
  (let ((let145 (ff.add let144 let42)))
  (let ((let146 (ff.mul let145 let143)))
  (let ((let147 (= let146 let102)))
  (let ((let148 c_n1_alt))
  (let ((let149 (ff.mul let148 let1)))
  (let ((let150 mul_n9_alt))
  (let ((let151 (ff.mul let150 let1)))
  (let ((let152 (ff.add let151 let149 let0)))
  (let ((let153 (ff.mul let66 let152)))
  (let ((let154 (= let153 let99)))
  (let ((let155 (ff.mul let59 let127)))
  (let ((let156 (ff.mul let62 let127)))
  (let ((let157 (ff.mul let64 let42)))
  (let ((let158 (ff.add let157 let156 let155 let42)))
  (let ((let159 (ff.mul let158 let60)))
  (let ((let160 (= let159 let63)))
  (let ((let161 (ff.mul let47 let74)))
  (let ((let162 (= let161 let7)))
  (let ((let163 (ff.mul let32 let127)))
  (let ((let164 (ff.add let163 let42)))
  (let ((let165 (ff.mul let164 let83)))
  (let ((let166 (= let165 let45)))
  (let ((let167 (ff.add let149 let0)))
  (let ((let168 mul_n17_alt))
  (let ((let169 (ff.mul let168 let167)))
  (let ((let170 (= let169 let32)))
  (let ((let171 mul_n16_alt))
  (let ((let172 (ff.mul let171 let50)))
  (let ((let173 (= let172 let168)))
  (let ((let174 (ff.mul let132 let1)))
  (let ((let175 (ff.add let174 let91 let0)))
  (let ((let176 (ff.mul let175 let175)))
  (let ((let177 (= let176 let171)))
  (let ((let178 (ff.add let91 let62)))
  (let ((let179 (ff.mul let50 let1)))
  (let ((let180 (ff.add let179 let0)))
  (let ((let181 (ff.mul let180 let178)))
  (let ((let182 (= let181 let132)))
  (let ((let183 (ff.add let61 let0)))
  (let ((let184 mul_n13_alt))
  (let ((let185 (ff.mul let184 let183)))
  (let ((let186 (= let185 let50)))
  (let ((let187 (ff.add let120 let0)))
  (let ((let188 (ff.add let28 let119)))
  (let ((let189 (ff.mul let188 let187)))
  (let ((let190 (= let189 let184)))
  (let ((let191 (ff.add let43 let71 let0)))
  (let ((let192 (ff.mul let191 let187)))
  (let ((let193 (= let192 let74)))
  (let ((let194 (ff.add let150 let148 let28 let1)))
  (let ((let195 (ff.mul let83 let194)))
  (let ((let196 (= let195 let71)))
  (let ((let197 (ff.add let65 let59 let62)))
  (let ((let198 (ff.mul let152 let197)))
  (let ((let199 (= let198 let28)))
  (let ((let200 (ff.add let149 let62)))
  (let ((let201 (ff.mul let72 let200)))
  (let ((let202 (= let201 let150)))
  (let ((let203 (ff.mul let59 let42)))
  (let ((let204 (ff.mul let203 let62)))
  (let ((let205 (= let204 let64)))
  (let ((let206 mul_n6_alt))
  (let ((let207 (ff.mul let206 let60)))
  (let ((let208 (= let207 let62)))
  (let ((let209 mul_n5_alt))
  (let ((let210 (ff.mul let209 let148)))
  (let ((let211 (= let210 let206)))
  (let ((let212 (ff.mul let59 let60)))
  (let ((let213 (= let212 let209)))
  (let ((let214 (and let213 let211 let208 let205 let202 let199 let196 let193 let190 let186 let182 let177 let173 let170 let166 let162 let160 let154 let147 let142 let140 let135 let131 let125 let118 let114 let110 let107 let98 let95 let90 let87 let85 let82 let78 let68 let55 let49 let40 let31 let27 let23 let17 let11)))
  (let ((let215 return_n2))
  (let ((let216 (ff.mul let215 let1)))
  (let ((let217 (ff.add let216 let0)))
  (let ((let218 mul_n25))
  (let ((let219 (ff.mul let218 let1)))
  (let ((let220 mul_n20))
  (let ((let221 (ff.add let220 let219)))
  (let ((let222 mul_n48))
  (let ((let223 (ff.mul let222 let221)))
  (let ((let224 (= let223 let217)))
  (let ((let225 mul_n36))
  (let ((let226 (ff.mul let225 let1)))
  (let ((let227 (ff.add let226 let0)))
  (let ((let228 mul_n47))
  (let ((let229 (ff.mul let228 let227)))
  (let ((let230 (= let229 let222)))
  (let ((let231 mul_n34))
  (let ((let232 (ff.mul let231 let1)))
  (let ((let233 (ff.add let232 let0)))
  (let ((let234 mul_n46))
  (let ((let235 (ff.mul let234 let233)))
  (let ((let236 (= let235 let228)))
  (let ((let237 mul_n39))
  (let ((let238 mul_n45))
  (let ((let239 (ff.mul let238 let237)))
  (let ((let240 (= let239 let234)))
  (let ((let241 mul_n10))
  (let ((let242 mul_n44))
  (let ((let243 (ff.mul let242 let241)))
  (let ((let244 (= let243 let238)))
  (let ((let245 mul_n18))
  (let ((let246 mul_n41))
  (let ((let247 (ff.mul let246 let1)))
  (let ((let248 mul_n28))
  (let ((let249 (ff.mul let248 let1)))
  (let ((let250 (ff.add let249 let247 let245)))
  (let ((let251 mul_n43))
  (let ((let252 (ff.mul let251 let250)))
  (let ((let253 (= let252 let242)))
  (let ((let254 mul_n42))
  (let ((let255 (ff.mul let241 let1)))
  (let ((let256 (ff.mul let245 let1)))
  (let ((let257 mul_n19))
  (let ((let258 (ff.mul let257 let1)))
  (let ((let259 (ff.add let258 let256 let255 let42)))
  (let ((let260 (ff.mul let259 let254)))
  (let ((let261 (= let260 let251)))
  (let ((let262 mul_n14))
  (let ((let263 mul_n37))
  (let ((let264 (ff.mul let263 let1)))
  (let ((let265 (ff.add let264 let0)))
  (let ((let266 (ff.mul let265 let262)))
  (let ((let267 (= let266 let254)))
  (let ((let268 mul_n40))
  (let ((let269 (ff.mul let268 let1)))
  (let ((let270 (ff.add let269 let249 let245)))
  (let ((let271 b_n3))
  (let ((let272 a_n4))
  (let ((let273 (ff.mul let272 let1)))
  (let ((let274 mul_n7))
  (let ((let275 mul_n21))
  (let ((let276 mul_n8))
  (let ((let277 (ff.mul let276 let1)))
  (let ((let278 (ff.add let277 let275 let274 let273 let271)))
  (let ((let279 (ff.mul let278 let270)))
  (let ((let280 (= let279 let246)))
  (let ((let281 mul_n27))
  (let ((let282 (ff.mul let281 let1)))
  (let ((let283 mul_n11))
  (let ((let284 d_n0))
  (let ((let285 (ff.add let284 let283 let255 let282 let0)))
  (let ((let286 mul_n12))
  (let ((let287 (ff.mul let286 let1)))
  (let ((let288 (ff.add let287 let0)))
  (let ((let289 (ff.mul let288 let285)))
  (let ((let290 (= let289 let268)))
  (let ((let291 mul_n26))
  (let ((let292 mul_n38))
  (let ((let293 (ff.mul let292 let291)))
  (let ((let294 (= let293 let237)))
  (let ((let295 (ff.add let255 let0)))
  (let ((let296 (ff.mul let295 let263)))
  (let ((let297 (= let296 let292)))
  (let ((let298 (ff.mul let278 let220)))
  (let ((let299 (= let298 let263)))
  (let ((let300 mul_n35))
  (let ((let301 (ff.mul let300 let233)))
  (let ((let302 (= let301 let225)))
  (let ((let303 (ff.mul let271 let1)))
  (let ((let304 (ff.add let303 let0)))
  (let ((let305 mul_n33))
  (let ((let306 (ff.mul let305 let304)))
  (let ((let307 (= let306 let231)))
  (let ((let308 mul_n32))
  (let ((let309 (ff.mul let308 let291)))
  (let ((let310 (= let309 let305)))
  (let ((let311 mul_n22))
  (let ((let312 (ff.mul let311 let1)))
  (let ((let313 (ff.mul let274 let1)))
  (let ((let314 mul_n23))
  (let ((let315 (ff.mul let314 let1)))
  (let ((let316 (ff.add let276 let315 let313 let312 let303 let42)))
  (let ((let317 mul_n31))
  (let ((let318 (ff.mul let317 let316)))
  (let ((let319 (= let318 let308)))
  (let ((let320 mul_n30))
  (let ((let321 (ff.mul let320 let316)))
  (let ((let322 (= let321 let317)))
  (let ((let323 (ff.add let258 let255 let256 let42)))
  (let ((let324 mul_n29))
  (let ((let325 (ff.mul let324 let323)))
  (let ((let326 (= let325 let320)))
  (let ((let327 mul_n24))
  (let ((let328 (ff.add let249 let245)))
  (let ((let329 (ff.mul let328 let327)))
  (let ((let330 (= let329 let324)))
  (let ((let331 (ff.mul let283 let1)))
  (let ((let332 (ff.mul let284 let1)))
  (let ((let333 (ff.add let281 let332 let241 let245 let331 let1)))
  (let ((let334 (ff.mul let291 let1)))
  (let ((let335 (ff.add let334 let0)))
  (let ((let336 (ff.mul let335 let333)))
  (let ((let337 (= let336 let248)))
  (let ((let338 (ff.mul let283 let42)))
  (let ((let339 (ff.mul let241 let127)))
  (let ((let340 (ff.add let339 let338 let42)))
  (let ((let341 (ff.mul let340 let284)))
  (let ((let342 (= let341 let281)))
  (let ((let343 mul_n15))
  (let ((let344 (ff.add let271 let343)))
  (let ((let345 (ff.mul let344 let245)))
  (let ((let346 (= let345 let291)))
  (let ((let347 (ff.add let277 let314 let274 let220 let311 let271 let127)))
  (let ((let348 (ff.mul let327 let1)))
  (let ((let349 (ff.add let348 let0)))
  (let ((let350 (ff.mul let349 let347)))
  (let ((let351 (= let350 let218)))
  (let ((let352 (ff.mul let259 let220)))
  (let ((let353 (= let352 let327)))
  (let ((let354 (ff.add let276 let313 let303 let0)))
  (let ((let355 (ff.mul let311 let127)))
  (let ((let356 (ff.add let355 let42)))
  (let ((let357 (ff.mul let356 let354)))
  (let ((let358 (= let357 let314)))
  (let ((let359 c_n1))
  (let ((let360 (ff.mul let359 let1)))
  (let ((let361 mul_n9))
  (let ((let362 (ff.mul let361 let1)))
  (let ((let363 (ff.add let362 let360 let0)))
  (let ((let364 (ff.mul let278 let363)))
  (let ((let365 (= let364 let311)))
  (let ((let366 (ff.mul let271 let127)))
  (let ((let367 (ff.mul let274 let127)))
  (let ((let368 (ff.mul let276 let42)))
  (let ((let369 (ff.add let368 let367 let366 let42)))
  (let ((let370 (ff.mul let369 let272)))
  (let ((let371 (= let370 let275)))
  (let ((let372 (ff.mul let259 let286)))
  (let ((let373 (= let372 let220)))
  (let ((let374 (ff.mul let245 let127)))
  (let ((let375 (ff.add let374 let42)))
  (let ((let376 (ff.mul let375 let295)))
  (let ((let377 (= let376 let257)))
  (let ((let378 (ff.add let360 let0)))
  (let ((let379 mul_n17))
  (let ((let380 (ff.mul let379 let378)))
  (let ((let381 (= let380 let245)))
  (let ((let382 mul_n16))
  (let ((let383 (ff.mul let382 let262)))
  (let ((let384 (= let383 let379)))
  (let ((let385 (ff.mul let343 let1)))
  (let ((let386 (ff.add let385 let303 let0)))
  (let ((let387 (ff.mul let386 let386)))
  (let ((let388 (= let387 let382)))
  (let ((let389 (ff.add let303 let274)))
  (let ((let390 (ff.mul let262 let1)))
  (let ((let391 (ff.add let390 let0)))
  (let ((let392 (ff.mul let391 let389)))
  (let ((let393 (= let392 let343)))
  (let ((let394 (ff.add let273 let0)))
  (let ((let395 mul_n13))
  (let ((let396 (ff.mul let395 let394)))
  (let ((let397 (= let396 let262)))
  (let ((let398 (ff.add let332 let0)))
  (let ((let399 (ff.add let241 let331)))
  (let ((let400 (ff.mul let399 let398)))
  (let ((let401 (= let400 let395)))
  (let ((let402 (ff.add let255 let283 let0)))
  (let ((let403 (ff.mul let402 let398)))
  (let ((let404 (= let403 let286)))
  (let ((let405 (ff.add let361 let359 let241 let1)))
  (let ((let406 (ff.mul let295 let405)))
  (let ((let407 (= let406 let283)))
  (let ((let408 (ff.add let277 let271 let274)))
  (let ((let409 (ff.mul let363 let408)))
  (let ((let410 (= let409 let241)))
  (let ((let411 (ff.add let360 let274)))
  (let ((let412 (ff.mul let284 let411)))
  (let ((let413 (= let412 let361)))
  (let ((let414 (ff.mul let271 let42)))
  (let ((let415 (ff.mul let414 let274)))
  (let ((let416 (= let415 let276)))
  (let ((let417 mul_n6))
  (let ((let418 (ff.mul let417 let272)))
  (let ((let419 (= let418 let274)))
  (let ((let420 mul_n5))
  (let ((let421 (ff.mul let420 let359)))
  (let ((let422 (= let421 let417)))
  (let ((let423 (ff.mul let271 let272)))
  (let ((let424 (= let423 let420)))
  (let ((let425 (and let424 let422 let419 let416 let413 let410 let407 let404 let401 let397 let393 let388 let384 let381 let377 let373 let371 let365 let358 let353 let351 let346 let342 let337 let330 let326 let322 let319 let310 let307 let302 let299 let297 let294 let290 let280 let267 let261 let253 let244 let240 let236 let230 let224)))
  (let ((let426 (= let215 let2)))
  (let ((let427 (not let426)))
  (let ((let428 (= let284 let72)))
  (let ((let429 (= let272 let60)))
  (let ((let430 (= let271 let59)))
  (let ((let431 (= let359 let148)))
  (let ((let432 (and let431 let430 let429 let428)))
  (let ((let433 (and let432 let427 let425 let214)))
  let433
))))))))))))))))))))))))))))))))))))))))))))))))))))))))))))))))))))))))))))))))))))))))))))))))))))))))))))))))))))))))))))))))))))))))))))))))))))))))))))))))))))))))))))))))))))))))))))))))))))))))))))))))))))))))))))))))))))))))))))))))))))))))))))))))))))))))))))))))))))))))))))))))))))))))))))))))))))))))))))))))))))))))))))))))))))))))))))))))))))))))))))))))))))))))))))))))))))))))))))))))))))))))))))))))))))))))))))))))))
)
(check-sat)
